
(set-logic HORN)
(declare-fun Z_2006 () Int)
(declare-fun S_453 (Int) Int)
(declare-fun Z_2003 () Int)
(declare-fun S_452 (Int) Int)
(declare-fun diseqInt (Int Int) Bool)
(declare-fun unS_665 (Int Int) Bool)
(declare-fun isZ_420 (Int) Bool)
(declare-fun isS_420 (Int) Bool)
(assert (forall ((x_54922 Int))
	(unS_665 x_54922 (S_453 x_54922))))
(assert (isZ_420 Z_2006))
(assert (forall ((x_54924 Int))
	(isS_420 (S_453 x_54924))))
(assert (forall ((x_54925 Int))
	(diseqInt Z_2006 (S_453 x_54925))))
(assert (forall ((x_54926 Int))
	(diseqInt (S_453 x_54926) Z_2006)))
(assert (forall ((x_54927 Int) (x_54928 Int))
	(=> (diseqInt x_54927 x_54928) (diseqInt (S_453 x_54927) (S_453 x_54928)))))
(declare-fun add_358 (Int Int Int) Bool)
(declare-fun minus_353 (Int Int Int) Bool)
(declare-fun le_332 (Int Int) Bool)
(declare-fun ge_332 (Int Int) Bool)
(declare-fun lt_352 (Int Int) Bool)
(declare-fun gt_335 (Int Int) Bool)
(declare-fun mult_332 (Int Int Int) Bool)
(declare-fun div_332 (Int Int Int) Bool)
(declare-fun mod_334 (Int Int Int) Bool)
(assert (forall ((y_2245 Int))
	(add_358 y_2245 Z_2006 y_2245)))
(assert (forall ((x_54898 Int) (y_2245 Int) (r_405 Int))
	(=> (add_358 r_405 x_54898 y_2245) (add_358 (S_453 r_405) (S_453 x_54898) y_2245))))
(assert (forall ((y_2245 Int))
	(minus_353 Z_2006 Z_2006 y_2245)))
(assert (forall ((x_54898 Int) (y_2245 Int) (r_405 Int))
	(=> (minus_353 r_405 x_54898 y_2245) (minus_353 (S_453 r_405) (S_453 x_54898) y_2245))))
(assert (forall ((y_2245 Int))
	(le_332 Z_2006 y_2245)))
(assert (forall ((x_54898 Int) (y_2245 Int))
	(=> (le_332 x_54898 y_2245) (le_332 (S_453 x_54898) (S_453 y_2245)))))
(assert (forall ((y_2245 Int))
	(ge_332 y_2245 Z_2006)))
(assert (forall ((x_54898 Int) (y_2245 Int))
	(=> (ge_332 x_54898 y_2245) (ge_332 (S_453 x_54898) (S_453 y_2245)))))
(assert (forall ((y_2245 Int))
	(lt_352 Z_2006 (S_453 y_2245))))
(assert (forall ((x_54898 Int) (y_2245 Int))
	(=> (lt_352 x_54898 y_2245) (lt_352 (S_453 x_54898) (S_453 y_2245)))))
(assert (forall ((y_2245 Int))
	(gt_335 (S_453 y_2245) Z_2006)))
(assert (forall ((x_54898 Int) (y_2245 Int))
	(=> (gt_335 x_54898 y_2245) (gt_335 (S_453 x_54898) (S_453 y_2245)))))
(assert (forall ((y_2245 Int))
	(mult_332 Z_2006 Z_2006 y_2245)))
(assert (forall ((x_54898 Int) (y_2245 Int) (r_405 Int) (z_2007 Int))
	(=> (and (mult_332 r_405 x_54898 y_2245) (add_358 z_2007 r_405 y_2245)) (mult_332 z_2007 (S_453 x_54898) y_2245))))
(assert (forall ((x_54898 Int) (y_2245 Int))
	(=> (lt_352 x_54898 y_2245) (div_332 Z_2006 x_54898 y_2245))))
(assert (forall ((x_54898 Int) (y_2245 Int) (r_405 Int) (z_2007 Int))
	(=> (and (ge_332 x_54898 y_2245) (minus_353 z_2007 x_54898 y_2245) (div_332 r_405 z_2007 y_2245)) (div_332 (S_453 r_405) x_54898 y_2245))))
(assert (forall ((x_54898 Int) (y_2245 Int))
	(=> (lt_352 x_54898 y_2245) (mod_334 x_54898 x_54898 y_2245))))
(assert (forall ((x_54898 Int) (y_2245 Int) (r_405 Int) (z_2007 Int))
	(=> (and (ge_332 x_54898 y_2245) (minus_353 z_2007 x_54898 y_2245) (mod_334 r_405 z_2007 y_2245)) (mod_334 r_405 x_54898 y_2245))))
(declare-datatypes ((list_236 0)) (((nil_266) (cons_236 (head_472 Int) (tail_472 list_236)))))
(declare-fun diseqlist_236 (list_236 list_236) Bool)
(declare-fun head_473 (Int list_236) Bool)
(declare-fun tail_473 (list_236 list_236) Bool)
(declare-fun isnil_266 (list_236) Bool)
(declare-fun iscons_236 (list_236) Bool)
(assert (forall ((x_54900 Int) (x_54901 list_236))
	(head_473 x_54900 (cons_236 x_54900 x_54901))))
(assert (forall ((x_54900 Int) (x_54901 list_236))
	(tail_473 x_54901 (cons_236 x_54900 x_54901))))
(assert (isnil_266 nil_266))
(assert (forall ((x_54903 Int) (x_54904 list_236))
	(iscons_236 (cons_236 x_54903 x_54904))))
(assert (forall ((x_54905 Int) (x_54906 list_236))
	(diseqlist_236 nil_266 (cons_236 x_54905 x_54906))))
(assert (forall ((x_54907 Int) (x_54908 list_236))
	(diseqlist_236 (cons_236 x_54907 x_54908) nil_266)))
(assert (forall ((x_54909 Int) (x_54910 list_236) (x_54911 Int) (x_54912 list_236))
	(=> (diseqInt x_54909 x_54911) (diseqlist_236 (cons_236 x_54909 x_54910) (cons_236 x_54911 x_54912)))))
(assert (forall ((x_54909 Int) (x_54910 list_236) (x_54911 Int) (x_54912 list_236))
	(=> (diseqlist_236 x_54910 x_54912) (diseqlist_236 (cons_236 x_54909 x_54910) (cons_236 x_54911 x_54912)))))
(declare-fun diseqInt (Int Int) Bool)
(declare-fun projS_175 (Int Int) Bool)
(declare-fun isZ_419 (Int) Bool)
(declare-fun isS_419 (Int) Bool)
(assert (forall ((x_54914 Int))
	(projS_175 x_54914 (S_452 x_54914))))
(assert (isZ_419 Z_2003))
(assert (forall ((x_54916 Int))
	(isS_419 (S_452 x_54916))))
(assert (forall ((x_54917 Int))
	(diseqInt Z_2003 (S_452 x_54917))))
(assert (forall ((x_54918 Int))
	(diseqInt (S_452 x_54918) Z_2003)))
(assert (forall ((x_54919 Int) (x_54920 Int))
	(=> (diseqInt x_54919 x_54920) (diseqInt (S_452 x_54919) (S_452 x_54920)))))
(declare-fun length_46 (Int list_236) Bool)
(assert (forall ((x_54883 Int) (y_2241 Int) (xs_643 list_236))
	(=> (length_46 x_54883 xs_643) (length_46 (S_452 x_54883) (cons_236 y_2241 xs_643)))))
(assert (length_46 Z_2003 nil_266))
(declare-fun half_0 (Int Int) Bool)
(assert (forall ((x_54886 Int) (z_2004 Int))
	(=> (half_0 x_54886 z_2004) (half_0 (S_452 x_54886) (S_452 (S_452 z_2004))))))
(assert (half_0 Z_2003 (S_452 Z_2003)))
(assert (half_0 Z_2003 Z_2003))
(declare-fun x_54879 (list_236 list_236 list_236) Bool)
(assert (forall ((x_54890 list_236) (z_2005 Int) (xs_644 list_236) (y_2243 list_236))
	(=> (x_54879 x_54890 xs_644 y_2243) (x_54879 (cons_236 z_2005 x_54890) (cons_236 z_2005 xs_644) y_2243))))
(assert (forall ((x_54891 list_236))
	(x_54879 x_54891 nil_266 x_54891)))
(assert (forall ((x_54892 list_236) (x_54893 Int) (x_54894 Int) (x_54895 list_236) (x_54896 Int) (x_54897 Int) (x_54881 list_236) (y_2244 list_236))
	(=> (and true (diseqInt x_54894 x_54897) (x_54879 x_54892 x_54881 y_2244) (length_46 x_54893 x_54892) (half_0 x_54894 x_54893) (x_54879 x_54895 y_2244 x_54881) (length_46 x_54896 x_54895) (half_0 x_54897 x_54896)) false)))
(check-sat)
